0 44 44
1 143 549
2 318 397
3 356 78
4 706 477
5 82 53
6 80 332
7 306 674
8 47 73
9 99 3
10 127 47
11 230 54
12 4 216
13 342 576
14 68 108
15 289 109
16 268 251
17 293 59
18 341 254
19 334 38
20 40 110
21 758 885
22 216 438
23 9 49
24 81 267
25 210 41
26 577 261
27 94 98
28 331 170
29 75 714
30 165 442
31 47 1
32 15 287
33 10 160
34 87 395
35 15 29
36 408 11
37 231 167
38 120 64
39 258 652
40 6 400
41 466 257
42 766 239
43 221 763
44 156 157
45 89 100
46 261 15
47 189 70
48 548 37
49 145 40
50 3 51
51 203 72
52 398 251
53 443 288
54 145 465
55 12 290
56 62 255
57 29 202
58 43 40
59 41 174
60 225 33
61 827 751
62 9 358
63 97 610